c colouring generated by benchmark framework
p edge 989 48461
v 1 8
v 2 0
v 3 7
v 4 13
v 5 27
v 6 5
v 7 30
v 8 4
v 9 25
v 10 5
v 11 24
v 12 1
v 13 25
v 14 11
v 15 8
v 16 3
v 17 14
v 18 24
v 19 1
v 20 28
v 21 28
v 22 27
v 23 23
v 24 30
v 25 31
v 26 31
v 27 32
v 28 15
v 29 23
v 30 21
v 31 4
v 32 21
v 33 12
v 34 9
v 35 3
v 36 18
v 37 0
v 38 26
v 39 15
v 40 31
v 41 6
v 42 16
v 43 24
v 44 12
v 45 17
v 46 23
v 47 29
v 48 25
v 49 11
v 50 6
v 51 20
v 52 17
v 53 2
v 54 28
v 55 7
v 56 10
v 57 2
v 58 13
v 59 10
v 60 19
v 61 16
v 62 13
v 63 9
v 64 19
v 65 8
v 66 14
v 67 19
v 68 18
v 69 14
v 70 5
v 71 10
v 72 1
v 73 8
v 74 18
v 75 9
v 76 8
v 77 4
v 78 3
v 79 11
v 80 5
v 81 15
v 82 16
v 83 4
v 84 11
v 85 17
v 86 5
v 87 9
v 88 4
v 89 18
v 90 0
v 91 1
v 92 7
v 93 14
v 94 12
v 95 5
v 96 12
v 97 15
v 98 7
v 99 11
v 100 6
v 101 13
v 102 16
v 103 0
v 104 11
v 105 3
v 106 7
v 107 0
v 108 20
v 109 3
v 110 2
v 111 15
v 112 13
v 113 2
v 114 17
v 115 1
v 116 9
v 117 12
v 118 10
v 119 10
v 120 18
v 121 6
v 122 23
v 123 22
v 124 22
v 125 4
v 126 14
v 127 8
v 128 19
v 129 21
v 130 2
v 131 9
v 132 17
v 133 18
v 134 16
v 135 22
v 136 5
v 137 20
v 138 23
v 139 4
v 140 8
v 141 1
v 142 19
v 143 1
v 144 8
v 145 17
v 146 21
v 147 14
v 148 12
v 149 5
v 150 7
v 151 13
v 152 4
v 153 6
v 154 6
v 155 11
v 156 20
v 157 0
v 158 7
v 159 3
v 160 2
v 161 11
v 162 16
v 163 7
v 164 15
v 165 13
v 166 5
v 167 12
v 168 21
v 169 0
v 170 11
v 171 10
v 172 10
v 173 8
v 174 15
v 175 7
v 176 13
v 177 14
v 178 3
v 179 19
v 180 2
v 181 9
v 182 1
v 183 15
v 184 6
v 185 3
v 186 20
v 187 17
v 188 9
v 189 22
v 190 18
v 191 16
v 192 22
v 193 10
v 194 4
v 195 9
v 196 21
v 197 14
v 198 19
v 199 2
v 200 0
v 201 1
v 202 14
v 203 17
v 204 13
v 205 1
v 206 12
v 207 6
v 208 16
v 209 9
v 210 18
v 211 20
v 212 8
v 213 12
v 214 21
v 215 5
v 216 19
v 217 4
v 218 20
v 219 5
v 220 11
v 221 21
v 222 10
v 223 4
v 224 8
v 225 6
v 226 23
v 227 0
v 228 7
v 229 12
v 230 8
v 231 11
v 232 15
v 233 3
v 234 13
v 235 2
v 236 15
v 237 20
v 238 10
v 239 15
v 240 15
v 241 18
v 242 3
v 243 22
v 244 0
v 245 16
v 246 6
v 247 23
v 248 3
v 249 14
v 250 16
v 251 7
v 252 3
v 253 19
v 254 17
v 255 1
v 256 1
v 257 2
v 258 2
v 259 2
v 260 13
v 261 0
v 262 22
v 263 23
v 264 9
v 265 14
v 266 8
v 267 19
v 268 8
v 269 20
v 270 21
v 271 5
v 272 21
v 273 4
v 274 9
v 275 18
v 276 13
v 277 10
v 278 5
v 279 12
v 280 23
v 281 12
v 282 6
v 283 17
v 284 14
v 285 12
v 286 11
v 287 7
v 288 4
v 289 10
v 290 13
v 291 18
v 292 1
v 293 8
v 294 4
v 295 15
v 296 0
v 297 5
v 298 22
v 299 19
v 300 11
v 301 16
v 302 3
v 303 4
v 304 11
v 305 6
v 306 6
v 307 16
v 308 3
v 309 2
v 310 10
v 311 1
v 312 0
v 313 17
v 314 2
v 315 1
v 316 14
v 317 15
v 318 19
v 319 15
v 320 20
v 321 3
v 322 21
v 323 3
v 324 23
v 325 18
v 326 20
v 327 7
v 328 0
v 329 9
v 330 9
v 331 10
v 332 8
v 333 18
v 334 22
v 335 9
v 336 14
v 337 18
v 338 19
v 339 17
v 340 12
v 341 12
v 342 1
v 343 13
v 344 21
v 345 8
v 346 8
v 347 12
v 348 2
v 349 7
v 350 7
v 351 5
v 352 11
v 353 24
v 354 4
v 355 22
v 356 5
v 357 7
v 358 5
v 359 10
v 360 24
v 361 4
v 362 22
v 363 16
v 364 0
v 365 6
v 366 6
v 367 15
v 368 1
v 369 1
v 370 10
v 371 6
v 372 12
v 373 3
v 374 23
v 375 3
v 376 23
v 377 19
v 378 3
v 379 20
v 380 2
v 381 21
v 382 14
v 383 8
v 384 13
v 385 14
v 386 2
v 387 15
v 388 11
v 389 10
v 390 3
v 391 9
v 392 15
v 393 2
v 394 18
v 395 14
v 396 18
v 397 13
v 398 21
v 399 19
v 400 20
v 401 12
v 402 17
v 403 0
v 404 4
v 405 16
v 406 17
v 407 16
v 408 5
v 409 8
v 410 7
v 411 11
v 412 24
v 413 7
v 414 23
v 415 24
v 416 6
v 417 22
v 418 4
v 419 16
v 420 13
v 421 11
v 422 20
v 423 6
v 424 0
v 425 22
v 426 6
v 427 4
v 428 1
v 429 17
v 430 23
v 431 8
v 432 5
v 433 9
v 434 16
v 435 1
v 436 21
v 437 18
v 438 12
v 439 10
v 440 19
v 441 3
v 442 10
v 443 15
v 444 19
v 445 18
v 446 7
v 447 2
v 448 3
v 449 5
v 450 21
v 451 1
v 452 20
v 453 14
v 454 2
v 455 0
v 456 9
v 457 14
v 458 19
v 459 12
v 460 8
v 461 2
v 462 13
v 463 10
v 464 15
v 465 24
v 466 25
v 467 13
v 468 4
v 469 17
v 470 24
v 471 11
v 472 14
v 473 23
v 474 11
v 475 5
v 476 3
v 477 17
v 478 7
v 479 6
v 480 23
v 481 22
v 482 15
v 483 22
v 484 13
v 485 6
v 486 16
v 487 5
v 488 23
v 489 1
v 490 12
v 491 24
v 492 4
v 493 20
v 494 19
v 495 7
v 496 18
v 497 12
v 498 9
v 499 18
v 500 21
v 501 7
v 502 5
v 503 1
v 504 17
v 505 9
v 506 3
v 507 9
v 508 0
v 509 0
v 510 1
v 511 2
v 512 16
v 513 10
v 514 4
v 515 19
v 516 21
v 517 8
v 518 2
v 519 0
v 520 16
v 521 8
v 522 20
v 523 18
v 524 10
v 525 8
v 526 11
v 527 14
v 528 1
v 529 11
v 530 14
v 531 14
v 532 17
v 533 2
v 534 13
v 535 3
v 536 15
v 537 6
v 538 23
v 539 5
v 540 6
v 541 22
v 542 15
v 543 20
v 544 19
v 545 20
v 546 17
v 547 22
v 548 6
v 549 15
v 550 4
v 551 7
v 552 21
v 553 18
v 554 7
v 555 5
v 556 3
v 557 21
v 558 9
v 559 21
v 560 23
v 561 24
v 562 12
v 563 13
v 564 9
v 565 12
v 566 4
v 567 2
v 568 1
v 569 0
v 570 16
v 571 0
v 572 0
v 573 13
v 574 16
v 575 7
v 576 16
v 577 10
v 578 17
v 579 1
v 580 11
v 581 19
v 582 9
v 583 24
v 584 2
v 585 0
v 586 19
v 587 10
v 588 5
v 589 3
v 590 11
v 591 13
v 592 14
v 593 2
v 594 8
v 595 18
v 596 14
v 597 8
v 598 8
v 599 15
v 600 12
v 601 22
v 602 20
v 603 22
v 604 13
v 605 18
v 606 6
v 607 14
v 608 5
v 609 20
v 610 4
v 611 3
v 612 21
v 613 23
v 614 15
v 615 12
v 616 20
v 617 6
v 618 4
v 619 24
v 620 16
v 621 9
v 622 21
v 623 25
v 624 9
v 625 7
v 626 2
v 627 23
v 628 16
v 629 25
v 630 17
v 631 25
v 632 9
v 633 1
v 634 23
v 635 12
v 636 10
v 637 10
v 638 7
v 639 1
v 640 11
v 641 11
v 642 11
v 643 19
v 644 0
v 645 24
v 646 2
v 647 0
v 648 13
v 649 8
v 650 8
v 651 16
v 652 12
v 653 15
v 654 13
v 655 17
v 656 3
v 657 14
v 658 0
v 659 6
v 660 4
v 661 20
v 662 19
v 663 14
v 664 5
v 665 15
v 666 20
v 667 22
v 668 22
v 669 5
v 670 4
v 671 3
v 672 24
v 673 5
v 674 25
v 675 10
v 676 18
v 677 25
v 678 18
v 679 2
v 680 23
v 681 21
v 682 20
v 683 17
v 684 0
v 685 16
v 686 26
v 687 12
v 688 10
v 689 1
v 690 21
v 691 26
v 692 21
v 693 23
v 694 9
v 695 11
v 696 24
v 697 24
v 698 12
v 699 10
v 700 9
v 701 16
v 702 2
v 703 11
v 704 8
v 705 1
v 706 7
v 707 7
v 708 15
v 709 6
v 710 13
v 711 8
v 712 6
v 713 2
v 714 13
v 715 4
v 716 4
v 717 1
v 718 14
v 719 18
v 720 0
v 721 19
v 722 5
v 723 0
v 724 5
v 725 3
v 726 10
v 727 22
v 728 14
v 729 16
v 730 23
v 731 4
v 732 3
v 733 14
v 734 15
v 735 17
v 736 25
v 737 3
v 738 20
v 739 19
v 740 5
v 741 8
v 742 18
v 743 17
v 744 25
v 745 20
v 746 21
v 747 22
v 748 24
v 749 24
v 750 12
v 751 22
v 752 9
v 753 13
v 754 12
v 755 16
v 756 20
v 757 1
v 758 11
v 759 15
v 760 26
v 761 26
v 762 2
v 763 23
v 764 7
v 765 2
v 766 24
v 767 14
v 768 21
v 769 7
v 770 9
v 771 7
v 772 18
v 773 11
v 774 1
v 775 11
v 776 0
v 777 10
v 778 9
v 779 16
v 780 6
v 781 8
v 782 18
v 783 4
v 784 5
v 785 21
v 786 27
v 787 0
v 788 3
v 789 19
v 790 27
v 791 10
v 792 3
v 793 0
v 794 25
v 795 17
v 796 25
v 797 20
v 798 24
v 799 6
v 800 19
v 801 4
v 802 28
v 803 8
v 804 2
v 805 1
v 806 13
v 807 23
v 808 5
v 809 20
v 810 12
v 811 22
v 812 4
v 813 25
v 814 6
v 815 14
v 816 24
v 817 28
v 818 26
v 819 17
v 820 12
v 821 21
v 822 7
v 823 15
v 824 15
v 825 11
v 826 19
v 827 2
v 828 17
v 829 9
v 830 29
v 831 26
v 832 16
v 833 14
v 834 9
v 835 20
v 836 13
v 837 11
v 838 1
v 839 18
v 840 0
v 841 10
v 842 27
v 843 8
v 844 16
v 845 3
v 846 0
v 847 10
v 848 17
v 849 11
v 850 19
v 851 13
v 852 6
v 853 4
v 854 7
v 855 18
v 856 22
v 857 19
v 858 23
v 859 3
v 860 5
v 861 5
v 862 8
v 863 2
v 864 23
v 865 8
v 866 2
v 867 5
v 868 24
v 869 24
v 870 0
v 871 12
v 872 6
v 873 8
v 874 21
v 875 26
v 876 23
v 877 15
v 878 12
v 879 21
v 880 4
v 881 25
v 882 12
v 883 17
v 884 12
v 885 6
v 886 25
v 887 22
v 888 15
v 889 9
v 890 7
v 891 1
v 892 14
v 893 9
v 894 27
v 895 10
v 896 20
v 897 20
v 898 10
v 899 10
v 900 15
v 901 11
v 902 17
v 903 18
v 904 11
v 905 26
v 906 16
v 907 13
v 908 21
v 909 7
v 910 1
v 911 16
v 912 13
v 913 5
v 914 18
v 915 1
v 916 4
v 917 3
v 918 19
v 919 0
v 920 3
v 921 11
v 922 14
v 923 2
v 924 2
v 925 1
v 926 24
v 927 20
v 928 23
v 929 7
v 930 8
v 931 19
v 932 13
v 933 2
v 934 21
v 935 4
v 936 22
v 937 12
v 938 17
v 939 25
v 940 5
v 941 6
v 942 31
v 943 9
v 944 24
v 945 14
v 946 27
v 947 28
v 948 25
v 949 29
v 950 23
v 951 12
v 952 9
v 953 20
v 954 12
v 955 15
v 956 27
v 957 28
v 958 0
v 959 30
v 960 10
v 961 31
v 962 11
v 963 29
v 964 22
v 965 26
v 966 17
v 967 15
v 968 10
v 969 0
v 970 16
v 971 18
v 972 19
v 973 9
v 974 3
v 975 26
v 976 26
v 977 6
v 978 29
v 979 1
v 980 20
v 981 32
v 982 0
v 983 13
v 984 2
v 985 14
v 986 22
v 987 7
v 988 27
v 989 19
